18 20
2 2 2
8 6 1
2 10 1
3 1 1
4 8 1
10 3 1
9 1 2
5 1 1
3 6 1
1 1 1
2 4 1
2 9 1
5 9 1
7 4 1
4 3 1
7 9 1
1 4 1
8 9 1
10 10 
10 10 
10 10 
10 10 
10 10 
10 10 
10 10 
10 10 
10 10 
10 10 
10 10 
10 10 
10 10 
10 10 
10 10 
10 10 
10 10 
10 10 
10 10 
10 10 
